\ENCODING=ISO-8859-1
\Problem name: ilog.cplex

Minimize
 obj: x1 + x2 + x3 + x4 + x5 + x6 + x7
Subject To
 c1:  x1 + x15 + x16 + x17 + x18 + x19 + x20 + x21 + x22 + x23 + x24 + x25
      + x26 + x27 + x28 + x29 + x30 + x31 + x32 + x33 + x34 + x35 + x36 + x37
      + x38 + x39 + x40 + x41 + x42 + x43 + x44 + x45 + x46 + x47 + x48 + x49
      + x50 + x51 + x52 + x53 + x54 + x55 + x56 + x57 + x58 + x59 + x60 + x61
      + x62 + x63 + x64 + x65 + x66 + x67 + x68 + x69 + x70 + x71 + x72 + x73
      + x74 + x75 + x76 + x77 + x78 + x79 + x80 + x81 + x82 + x83 + x84 + x85
      + x86 + x87 + x88 + x89 + x90 + x91 + x92 + x93 + x94 + x95 + x96 + x97
      + x98 + x99 + x100 + x101 + x102 + x103 + x104 + x105 + x106 + x107
      + x108 + x109 + x110 + x111 + x112 + x113 + x114 + x115 + x116 + x117
      + x118 + x119 + x120 + x121 + x122 + x123 + x124 + x125 + x126 + x127
      + x128 + x129 + x130 + x131 + x132 + x133 + x134 + x135 + x136 + x137
      + x138 + x139 + x140 + x141 + x142 + x143 + x144 + x145 + x146 + x147
      + x148 + x149 + x150 + x151 + x152 + x153 + x154 + x155 + x156 + x157
      + x158 + x159 + x160 + x161 + x162 + x163 + x164 + x165 + x166 + x167
      + x168 + x169 + x170 + x171 + x172 + x173 + x174 + x175 + x176 >= 1
 c3:  x2 + x15 + x17 + x22 + x23 + x24 + x25 + x26 + x27 + x28 + x29 + x31
      + x33 + x34 + x35 + x37 + x38 + x40 + x42 + x43 + x44 + x45 + x46 + x47
      + x48 + x50 + x51 + x52 + x54 + x61 + x62 + x63 + x65 + x67 + x69 + x70
      + x71 + x72 + x73 + x74 + x76 + x77 + x78 + x80 + x82 + x84 + x87 + x89
      + x90 + x91 + x92 + x94 + x96 + x100 + x101 + x102 + x103 + x105 + x107
      + x110 + x111 + x113 + x115 + x117 + x118 + x121 + x122 + x123 + x124
      + x128 + x130 + x132 + x134 + x135 + x136 + x138 + x139 + x140 + x141
      + x142 + x144 + x147 + x149 + x150 + x152 + x153 + x154 + x155 + x158
      + x159 + x161 + x163 + x167 + x168 + x170 + x173 + x174 + x339 + x340
      + x341 + x342 + x343 + x344 + x345 + x346 + x347 + x348 + x349 + x350
      + x351 + x352 + x353 + x354 + x355 >= 1
 c5:  x3 + x16 + x17 + x18 + x22 + x23 + x25 + x27 + x28 + x29 + x31 + x33
      + x34 + x36 + x38 + x39 + x40 + x41 + x42 + x43 + x47 + x48 + x50 + x52
      + x53 + x55 + x56 + x58 + x59 + x60 + x62 + x64 + x65 + x66 + x67 + x69
      + x80 + x81 + x85 + x87 + x88 + x92 + x93 + x95 + x98 + x102 + x114
      + x116 + x119 + x121 + x123 + x125 + x126 + x131 + x133 + x138 + x140
      + x143 + x145 + x148 + x149 + x150 + x156 + x160 + x164 + x165 + x167
      + x172 + x176 + x342 + x343 + x345 + x350 + x351 + x353 + x356 + x357
      + x358 + x359 + x360 + x361 + x362 + x363 + x364 + x365 + x366 + x367
      + x368 + x369 + x370 + x371 + x372 + x373 + x374 >= 1
 c7:  x4 + x16 + x17 + x18 + x19 + x21 + x24 + x25 + x27 + x28 + x32 + x33
      + x36 + x37 + x44 + x45 + x49 + x51 + x54 + x56 + x57 + x58 + x61 + x62
      + x63 + x64 + x66 + x70 + x71 + x73 + x76 + x78 + x79 + x83 + x84 + x95
      + x96 + x97 + x99 + x101 + x103 + x104 + x105 + x106 + x107 + x109 + x111
      + x112 + x113 + x114 + x115 + x122 + x126 + x127 + x128 + x129 + x132
      + x134 + x135 + x137 + x139 + x142 + x143 + x146 + x147 + x151 + x153
      + x155 + x157 + x161 + x165 + x169 + x170 + x171 + x174 + x176 + x340
      + x342 + x343 + x346 + x347 + x349 + x350 + x351 + x352 + x354 + x357
      + x359 + x361 + x362 + x363 + x365 + x366 + x367 + x369 + x370 + x371
      + x394 + x395 + x396 + x397 + x398 + x399 + x400 + x401 + x402 + x403
      + x404 + x405 >= 1
 c9:  x5 + x18 + x22 + x23 + x35 + x37 + x38 + x39 + x46 + x48 + x53 + x56
      + x57 + x63 + x68 + x70 + x73 + x82 + x84 + x85 + x90 + x91 + x93 + x98
      + x99 + x104 + x108 + x110 + x115 + x116 + x117 + x118 + x119 + x124
      + x125 + x127 + x136 + x137 + x141 + x145 + x152 + x156 + x159 + x162
      + x164 + x169 + x171 + x175 + x347 + x349 + x362 + x363 + x364 + x373
      + x394 + x398 + x401 + x404 + x418 + x419 >= 1
 c11: x6 + x15 + x19 + x20 + x26 + x30 + x41 + x49 + x74 + x75 + x79 + x83
      + x86 + x108 + x120 + x166 + x339 + x340 + x341 + x344 + x346 + x348
      + x355 + x358 + x368 + x394 + x397 + x398 + x399 + x400 + x405 + x418
      + x419 + x422 + x423 + x424 + x425 + x426 + x427 + x428 + x429 >= 1
 c13: x7 + x30 + x34 + x36 + x39 + x40 + x46 + x52 + x53 + x54 + x58 + x60
      + x64 + x68 + x71 + x77 + x81 + x86 + x90 + x94 + x99 + x105 + x112
      + x118 + x131 + x137 + x139 + x142 + x146 + x151 + x158 + x160 + x162
      + x172 + x173 + x342 + x344 + x345 + x347 + x349 + x354 + x356 + x357
      + x360 + x361 + x363 + x364 + x365 + x366 + x367 + x369 + x370 + x371
      + x372 + x395 + x396 + x397 + x399 + x402 + x403 + x423 + x424 + x427
      + x428 >= 1
 c15: x15 + x16 + x17 + x18 + x19 + x20 + x21 + x22 + x23 + x24 + x25 + x26
      + x27 + x28 + x29 + x30 + x31 + x32 + x33 + x34 + x35 + x36 + x37 + x38
      + x39 + x40 + x41 + x42 + x43 + x44 + x45 + x46 + x47 + x48 + x49 + x50
      + x51 + x52 + x53 + x54 + x55 + x56 + x57 + x58 + x59 + x60 + x61 + x62
      + x63 + x64 + x339 + x340 + x341 + x342 + x343 + x344 + x356 + x357
      + x358 + x359 + x360 + x361 + x362 + x363 + x394 + x395 + x396 + x397
      + x418 + x422 + x423 <= 1
 c17: x65 + x66 + x67 + x68 + x69 + x70 + x71 + x72 + x73 + x74 + x75 + x76
      + x77 + x78 + x79 + x80 + x81 + x82 + x83 + x84 + x85 + x86 + x87 + x88
      + x89 + x90 + x91 + x92 + x93 + x94 + x95 + x96 + x97 + x98 + x99 + x100
      + x101 + x102 + x103 + x104 + x105 + x106 + x107 + x108 + x109 + x110
      + x111 + x112 + x113 + x114 + x115 + x116 + x117 + x118 + x345 + x346
      + x347 + x348 + x349 + x364 + x365 + x366 + x367 + x368 + x398 + x399
      + x424 + x425 <= 1
 c19: x119 + x120 + x121 + x122 + x123 + x124 + x125 + x126 + x127 + x128
      + x129 + x130 + x131 + x132 + x133 + x134 + x135 + x136 + x137 + x138
      + x139 + x140 + x141 + x142 + x143 + x144 + x145 + x146 + x147 + x148
      + x350 + x351 + x352 + x369 + x370 + x371 + x400 + x401 + x402 + x426
      + x427 <= 1
 c21: x149 + x150 + x151 + x152 + x153 + x154 + x155 + x156 + x157 + x158
      + x159 + x160 + x161 + x162 + x163 + x164 + x165 + x166 + x167 + x168
      + x169 + x170 + x171 + x172 + x173 + x174 + x175 + x176 + x353 + x354
      + x355 + x372 + x373 + x374 + x403 + x404 + x405 + x419 + x428 + x429
      <= 1
End
